
-6.55
-6.55
-6.25
-5.5
-3.85
-2.75
-2.3
-2.05
-1.8
-1.45
-1.15
-1.15
-1.15
-1.1
-1.1
-1.0
-1.0
-0.95
-0.95
-0.95
-0.95
-0.95
-0.95
-0.95
-0.95
-0.95
-0.95
-0.95
-0.95
-0.95
-0.95
-0.95
-0.95
-0.95
-6.65
-6.4
-6.05
-5.1
-3.65
-2.85
-2.2
-1.8
-1.7
-1.6
-1.4
-1.3
-1.3
-1.25
-1.2
-1.05
-1.0
-1.0
-1.0
-1.0
-1.0
-1.0
-1.0
-1.0
-1.0
-1.0
-1.0
-1.0
-1.0
-1.0
-1.0
-1.0
-1.0
-1.0
-1.0